NAME : mr28
COMMENT : 28-city problem (DISC)
TYPE : TSP
DIMENSION : 28
EDGE_WEIGHT_TYPE : EUC_2D
NODE_COORD_SECTION
1 73 78
2 57 15
3 13 73
4 40 96
5 79 8
6 52 45
7 19 85
8 86 15
9 96 77
10 99 79
11 20 68
12 98 14
13 24 4
14 3 66
15 95 26
16 93 99
17 30 54
18 17 6
19 40 70
20 52 63
21 31 90
22 43 17
23 84 62
24 57 32
25 84 77
26 100 16
27 34 93
28 10 50
EOF
